(set-logic QF_FP)
(set-option :produce-models true)
(set-info :source |Random FP created by PyMPF|)
(set-info :category random)
(set-info :status sat)
(declare-const x Float32)
(assert (= x (fp #b0 #b11000100 #b11010101011110011000100)))
(declare-const y Float32)
(assert (= y (fp #b1 #b10000101 #b11111000001111001101011)))
(declare-const z Float32)
(assert (= z ((_ to_fp 8 24) #x7F800000)))
(declare-const result Float32)
(assert (= result (fp.fma RNA x y z)))
(assert (= result (fp #b0 #b11111111 #b00000000000000000000000)))
(check-sat)
(exit)
